39 28 75 63 27 31 67 71 40 38 41 34 26 54 43 35 37 66 55 13 17 60 70 
5 14 59 62 21 19 23 64 52 57 12 16 9 49 20 22 10 74 46 4 1 68 32 24 48 25 
72 45 2 47 11 69 44 36 53 7 6 61 51 18 56 50 58 
42 29 33 65 73 15 30 8 3 

